1 5 30
4559
  4.4   1.3  47.3 10714.8   0.0
  0.9 12857.8 298.5
  1.8 25691.4 596.5
  0.9 12637.1 293.4
  1.5 20954.6 486.5
  1.5 21178.1 491.7
 1364
 1469
 1422
 1305
  502
 1470
 1313
 1042
 1350
 1066
  784
  732
  800
 1364
  542
 1099
 1407
  780
  800
  809
  944
  864
 1056
  743
  542
 1433
 1086
  697
 1103
  761
